Minimize
	value: tt

Subject to
tt + 1000 s_1_1 > 0.0
tt - t_1_1 - 1004.250026 s_1_1  + 2.125013 s_1_8  + 2.125013 s_1_7  > -981.448242
tt + 1000 s_2_1 > 0.0
tt - t_2_1 - 1003.975568 s_2_1  + 1.987784 s_2_8  + 1.987784 s_2_7  > -984.717973
tt + 1000 s_1_2 > 0.0
tt - t_1_2 - 1002.125013 s_1_2  + 2.125013 s_1_7  > -981.535689
tt + 1000 s_2_2 > 0.0
tt - t_2_2 - 1001.987784 s_2_2  + 1.987784 s_2_7  > -985.788215
tt + 1000 s_1_3 > 0.0
tt - t_1_3 - 1004.250026 s_1_3  + 2.125013 s_1_8  + 2.125013 s_1_7  > -998.098567
tt + 1000 s_2_3 > 0.0
tt - t_2_3 - 1003.975568 s_2_3  + 1.987784 s_2_8  + 1.987784 s_2_7  > -997.489583
tt + 1000 s_1_4 > 0.0
tt - t_1_4 - 1002.125013 s_1_4  + 2.125013 s_1_7  > -997.068808
tt + 1000 s_2_4 > 0.0
tt - t_2_4 - 1001.987784 s_2_4  + 1.987784 s_2_7  > -996.048756
tt + 1000 s_1_5 > 0.0
tt - t_1_5 - 1002.125013 s_1_5  + 2.125013 s_1_8  > -991.159800
tt + 1000 s_2_5 > 0.0
tt - t_2_5 - 1001.987784 s_2_5  + 1.987784 s_2_8  > -993.314938
tt + 1000 s_1_6 > 0.0
tt - t_1_6 - 1012.750079 s_1_6  + 2.125013 s_1_3  + 2.125013 s_1_2  + 2.125013 s_1_4  + 2.125013 s_1_1  + 2.125013 s_1_7  + 2.125013 s_1_5  > -998.685333
tt + 1000 s_2_6 > 0.0
tt - t_2_6 - 1011.926703 s_2_6  + 1.987784 s_2_3  + 1.987784 s_2_2  + 1.987784 s_2_4  + 1.987784 s_2_1  + 1.987784 s_2_7  + 1.987784 s_2_5  > -997.026900
tt + 1000 s_1_7 > 0.0
tt - t_1_7 - 1000.000000 s_1_7  > -973.901247
tt + 1000 s_2_7 > 0.0
tt - t_2_7 - 1000.000000 s_2_7  > -988.437778
tt + 1000 s_1_8 > 0.0
tt - t_1_8 - 1000.000000 s_1_8  > -974.373656
tt + 1000 s_2_8 > 0.0
tt - t_2_8 - 1000.000000 s_2_8  > -988.673400
s_1_1 + s_2_1 = 1
s_1_2 + s_2_2 = 1
s_1_3 + s_2_3 = 1
s_1_4 + s_2_4 = 1
s_1_5 + s_2_5 = 1
s_1_6 + s_2_6 = 1
s_1_7 + s_2_7 = 1
s_1_8 + s_2_8 = 1
s_1_1 + s_1_2 + 1000 r_1_1_2 >= 2
- s_1_1 - s_1_2 - 1000 r_1_1_2 >= -1001
t_1_1 - t_1_2 - 1000.000000 u_1_1_2 - 2.125013 s_1_2  + 2.125013 s_1_7  + 2000.000000 r_1_1_2 > -981.535689
s_2_1 + s_2_2 + 1000 r_2_1_2 >= 2
- s_2_1 - s_2_2 - 1000 r_2_1_2 >= -1001
t_2_1 - t_2_2 - 1000.000000 u_2_1_2 - 1.987784 s_2_2  + 1.987784 s_2_7  + 2000.000000 r_2_1_2 > -985.788215
s_1_1 + s_1_3 + 1000 r_1_1_3 >= 2
- s_1_1 - s_1_3 - 1000 r_1_1_3 >= -1001
t_1_1 - t_1_3 - 1000.000000 u_1_1_3 - 4.250026 s_1_3  + 2.125013 s_1_8  + 2.125013 s_1_7  + 2000.000000 r_1_1_3 > -998.098567
s_2_1 + s_2_3 + 1000 r_2_1_3 >= 2
- s_2_1 - s_2_3 - 1000 r_2_1_3 >= -1001
t_2_1 - t_2_3 - 1000.000000 u_2_1_3 - 3.975568 s_2_3  + 1.987784 s_2_8  + 1.987784 s_2_7  + 2000.000000 r_2_1_3 > -997.489583
s_1_1 + s_1_4 + 1000 r_1_1_4 >= 2
- s_1_1 - s_1_4 - 1000 r_1_1_4 >= -1001
t_1_1 - t_1_4 - 1000.000000 u_1_1_4 - 2.125013 s_1_4  + 2.125013 s_1_7  + 2000.000000 r_1_1_4 > -997.068808
s_2_1 + s_2_4 + 1000 r_2_1_4 >= 2
- s_2_1 - s_2_4 - 1000 r_2_1_4 >= -1001
t_2_1 - t_2_4 - 1000.000000 u_2_1_4 - 1.987784 s_2_4  + 1.987784 s_2_7  + 2000.000000 r_2_1_4 > -996.048756
s_1_1 + s_1_5 + 1000 r_1_1_5 >= 2
- s_1_1 - s_1_5 - 1000 r_1_1_5 >= -1001
t_1_1 - t_1_5 - 1000.000000 u_1_1_5 - 2.125013 s_1_5  + 2.125013 s_1_8  + 2000.000000 r_1_1_5 > -991.159800
s_2_1 + s_2_5 + 1000 r_2_1_5 >= 2
- s_2_1 - s_2_5 - 1000 r_2_1_5 >= -1001
t_2_1 - t_2_5 - 1000.000000 u_2_1_5 - 1.987784 s_2_5  + 1.987784 s_2_8  + 2000.000000 r_2_1_5 > -993.314938
t_1_6 - t_1_1 - 1004.250026 s_1_1  + 2.125013 s_1_8  + 2.125013 s_1_7  > -981.448242
t_1_6 - t_2_1 - 1003.975568 s_2_1  + 1.987784 s_2_8  + 1.987784 s_2_7  > -984.717973
t_2_6 - t_1_1 - 1004.250026 s_1_1  + 2.125013 s_1_8  + 2.125013 s_1_7  > -981.448242
t_2_6 - t_2_1 - 1003.975568 s_2_1  + 1.987784 s_2_8  + 1.987784 s_2_7  > -984.717973
t_1_1 - t_1_7 - 1000.000000 s_1_7  > -973.901247
t_1_1 - t_2_7 - 1000.000000 s_2_7  > -988.437778
t_2_1 - t_1_7 - 1000.000000 s_1_7  > -973.901247
t_2_1 - t_2_7 - 1000.000000 s_2_7  > -988.437778
t_1_1 - t_1_8 - 1000.000000 s_1_8  > -974.373656
t_1_1 - t_2_8 - 1000.000000 s_2_8  > -988.673400
t_2_1 - t_1_8 - 1000.000000 s_1_8  > -974.373656
t_2_1 - t_2_8 - 1000.000000 s_2_8  > -988.673400
s_1_2 + s_1_1 + 1000 r_1_1_2 >= 2
- s_1_2 - s_1_1 - 1000 r_1_1_2 >= -1001
t_1_2 - t_1_1 + 1000.000000 u_1_1_2 - 4.250026 s_1_1  + 2.125013 s_1_8  + 2.125013 s_1_7  + 2000.000000 r_1_1_2 > 18.551758
s_2_2 + s_2_1 + 1000 r_2_1_2 >= 2
- s_2_2 - s_2_1 - 1000 r_2_1_2 >= -1001
t_2_2 - t_2_1 + 1000.000000 u_2_1_2 - 3.975568 s_2_1  + 1.987784 s_2_8  + 1.987784 s_2_7  + 2000.000000 r_2_1_2 > 15.282027
s_1_2 + s_1_3 + 1000 r_1_2_3 >= 2
- s_1_2 - s_1_3 - 1000 r_1_2_3 >= -1001
t_1_2 - t_1_3 - 1000.000000 u_1_2_3 - 4.250026 s_1_3  + 2.125013 s_1_8  + 2.125013 s_1_7  + 2000.000000 r_1_2_3 > -998.098567
s_2_2 + s_2_3 + 1000 r_2_2_3 >= 2
- s_2_2 - s_2_3 - 1000 r_2_2_3 >= -1001
t_2_2 - t_2_3 - 1000.000000 u_2_2_3 - 3.975568 s_2_3  + 1.987784 s_2_8  + 1.987784 s_2_7  + 2000.000000 r_2_2_3 > -997.489583
s_1_2 + s_1_4 + 1000 r_1_2_4 >= 2
- s_1_2 - s_1_4 - 1000 r_1_2_4 >= -1001
t_1_2 - t_1_4 - 1000.000000 u_1_2_4 - 2.125013 s_1_4  + 2.125013 s_1_7  + 2000.000000 r_1_2_4 > -997.068808
s_2_2 + s_2_4 + 1000 r_2_2_4 >= 2
- s_2_2 - s_2_4 - 1000 r_2_2_4 >= -1001
t_2_2 - t_2_4 - 1000.000000 u_2_2_4 - 1.987784 s_2_4  + 1.987784 s_2_7  + 2000.000000 r_2_2_4 > -996.048756
s_1_2 + s_1_5 + 1000 r_1_2_5 >= 2
- s_1_2 - s_1_5 - 1000 r_1_2_5 >= -1001
t_1_2 - t_1_5 - 1000.000000 u_1_2_5 - 2.125013 s_1_5  + 2.125013 s_1_8  + 2000.000000 r_1_2_5 > -991.159800
s_2_2 + s_2_5 + 1000 r_2_2_5 >= 2
- s_2_2 - s_2_5 - 1000 r_2_2_5 >= -1001
t_2_2 - t_2_5 - 1000.000000 u_2_2_5 - 1.987784 s_2_5  + 1.987784 s_2_8  + 2000.000000 r_2_2_5 > -993.314938
t_1_6 - t_1_2 - 1002.125013 s_1_2  + 2.125013 s_1_7  > -981.535689
t_1_6 - t_2_2 - 1001.987784 s_2_2  + 1.987784 s_2_7  > -985.788215
t_2_6 - t_1_2 - 1002.125013 s_1_2  + 2.125013 s_1_7  > -981.535689
t_2_6 - t_2_2 - 1001.987784 s_2_2  + 1.987784 s_2_7  > -985.788215
t_1_2 - t_1_7 - 1000.000000 s_1_7  > -973.901247
t_1_2 - t_2_7 - 1000.000000 s_2_7  > -988.437778
t_2_2 - t_1_7 - 1000.000000 s_1_7  > -973.901247
t_2_2 - t_2_7 - 1000.000000 s_2_7  > -988.437778
s_1_2 + s_1_8 + 1000 r_1_2_8 >= 2
- s_1_2 - s_1_8 - 1000 r_1_2_8 >= -1001
t_1_2 - t_1_8 - 1000.000000 u_1_2_8 - 0.000000 s_1_8  + 2000.000000 r_1_2_8 > -974.373656
s_2_2 + s_2_8 + 1000 r_2_2_8 >= 2
- s_2_2 - s_2_8 - 1000 r_2_2_8 >= -1001
t_2_2 - t_2_8 - 1000.000000 u_2_2_8 - 0.000000 s_2_8  + 2000.000000 r_2_2_8 > -988.673400
s_1_3 + s_1_1 + 1000 r_1_1_3 >= 2
- s_1_3 - s_1_1 - 1000 r_1_1_3 >= -1001
t_1_3 - t_1_1 + 1000.000000 u_1_1_3 - 4.250026 s_1_1  + 2.125013 s_1_8  + 2.125013 s_1_7  + 2000.000000 r_1_1_3 > 18.551758
s_2_3 + s_2_1 + 1000 r_2_1_3 >= 2
- s_2_3 - s_2_1 - 1000 r_2_1_3 >= -1001
t_2_3 - t_2_1 + 1000.000000 u_2_1_3 - 3.975568 s_2_1  + 1.987784 s_2_8  + 1.987784 s_2_7  + 2000.000000 r_2_1_3 > 15.282027
s_1_3 + s_1_2 + 1000 r_1_2_3 >= 2
- s_1_3 - s_1_2 - 1000 r_1_2_3 >= -1001
t_1_3 - t_1_2 + 1000.000000 u_1_2_3 - 2.125013 s_1_2  + 2.125013 s_1_7  + 2000.000000 r_1_2_3 > 18.464311
s_2_3 + s_2_2 + 1000 r_2_2_3 >= 2
- s_2_3 - s_2_2 - 1000 r_2_2_3 >= -1001
t_2_3 - t_2_2 + 1000.000000 u_2_2_3 - 1.987784 s_2_2  + 1.987784 s_2_7  + 2000.000000 r_2_2_3 > 14.211785
s_1_3 + s_1_4 + 1000 r_1_3_4 >= 2
- s_1_3 - s_1_4 - 1000 r_1_3_4 >= -1001
t_1_3 - t_1_4 - 1000.000000 u_1_3_4 - 2.125013 s_1_4  + 2.125013 s_1_7  + 2000.000000 r_1_3_4 > -997.068808
s_2_3 + s_2_4 + 1000 r_2_3_4 >= 2
- s_2_3 - s_2_4 - 1000 r_2_3_4 >= -1001
t_2_3 - t_2_4 - 1000.000000 u_2_3_4 - 1.987784 s_2_4  + 1.987784 s_2_7  + 2000.000000 r_2_3_4 > -996.048756
s_1_3 + s_1_5 + 1000 r_1_3_5 >= 2
- s_1_3 - s_1_5 - 1000 r_1_3_5 >= -1001
t_1_3 - t_1_5 - 1000.000000 u_1_3_5 - 2.125013 s_1_5  + 2.125013 s_1_8  + 2000.000000 r_1_3_5 > -991.159800
s_2_3 + s_2_5 + 1000 r_2_3_5 >= 2
- s_2_3 - s_2_5 - 1000 r_2_3_5 >= -1001
t_2_3 - t_2_5 - 1000.000000 u_2_3_5 - 1.987784 s_2_5  + 1.987784 s_2_8  + 2000.000000 r_2_3_5 > -993.314938
t_1_6 - t_1_3 - 1004.250026 s_1_3  + 2.125013 s_1_8  + 2.125013 s_1_7  > -998.098567
t_1_6 - t_2_3 - 1003.975568 s_2_3  + 1.987784 s_2_8  + 1.987784 s_2_7  > -997.489583
t_2_6 - t_1_3 - 1004.250026 s_1_3  + 2.125013 s_1_8  + 2.125013 s_1_7  > -998.098567
t_2_6 - t_2_3 - 1003.975568 s_2_3  + 1.987784 s_2_8  + 1.987784 s_2_7  > -997.489583
t_1_3 - t_1_7 - 1000.000000 s_1_7  > -973.901247
t_1_3 - t_2_7 - 1000.000000 s_2_7  > -988.437778
t_2_3 - t_1_7 - 1000.000000 s_1_7  > -973.901247
t_2_3 - t_2_7 - 1000.000000 s_2_7  > -988.437778
t_1_3 - t_1_8 - 1000.000000 s_1_8  > -974.373656
t_1_3 - t_2_8 - 1000.000000 s_2_8  > -988.673400
t_2_3 - t_1_8 - 1000.000000 s_1_8  > -974.373656
t_2_3 - t_2_8 - 1000.000000 s_2_8  > -988.673400
s_1_4 + s_1_1 + 1000 r_1_1_4 >= 2
- s_1_4 - s_1_1 - 1000 r_1_1_4 >= -1001
t_1_4 - t_1_1 + 1000.000000 u_1_1_4 - 4.250026 s_1_1  + 2.125013 s_1_8  + 2.125013 s_1_7  + 2000.000000 r_1_1_4 > 18.551758
s_2_4 + s_2_1 + 1000 r_2_1_4 >= 2
- s_2_4 - s_2_1 - 1000 r_2_1_4 >= -1001
t_2_4 - t_2_1 + 1000.000000 u_2_1_4 - 3.975568 s_2_1  + 1.987784 s_2_8  + 1.987784 s_2_7  + 2000.000000 r_2_1_4 > 15.282027
s_1_4 + s_1_2 + 1000 r_1_2_4 >= 2
- s_1_4 - s_1_2 - 1000 r_1_2_4 >= -1001
t_1_4 - t_1_2 + 1000.000000 u_1_2_4 - 2.125013 s_1_2  + 2.125013 s_1_7  + 2000.000000 r_1_2_4 > 18.464311
s_2_4 + s_2_2 + 1000 r_2_2_4 >= 2
- s_2_4 - s_2_2 - 1000 r_2_2_4 >= -1001
t_2_4 - t_2_2 + 1000.000000 u_2_2_4 - 1.987784 s_2_2  + 1.987784 s_2_7  + 2000.000000 r_2_2_4 > 14.211785
s_1_4 + s_1_3 + 1000 r_1_3_4 >= 2
- s_1_4 - s_1_3 - 1000 r_1_3_4 >= -1001
t_1_4 - t_1_3 + 1000.000000 u_1_3_4 - 4.250026 s_1_3  + 2.125013 s_1_8  + 2.125013 s_1_7  + 2000.000000 r_1_3_4 > 1.901433
s_2_4 + s_2_3 + 1000 r_2_3_4 >= 2
- s_2_4 - s_2_3 - 1000 r_2_3_4 >= -1001
t_2_4 - t_2_3 + 1000.000000 u_2_3_4 - 3.975568 s_2_3  + 1.987784 s_2_8  + 1.987784 s_2_7  + 2000.000000 r_2_3_4 > 2.510417
s_1_4 + s_1_5 + 1000 r_1_4_5 >= 2
- s_1_4 - s_1_5 - 1000 r_1_4_5 >= -1001
t_1_4 - t_1_5 - 1000.000000 u_1_4_5 - 2.125013 s_1_5  + 2.125013 s_1_8  + 2000.000000 r_1_4_5 > -991.159800
s_2_4 + s_2_5 + 1000 r_2_4_5 >= 2
- s_2_4 - s_2_5 - 1000 r_2_4_5 >= -1001
t_2_4 - t_2_5 - 1000.000000 u_2_4_5 - 1.987784 s_2_5  + 1.987784 s_2_8  + 2000.000000 r_2_4_5 > -993.314938
t_1_6 - t_1_4 - 1002.125013 s_1_4  + 2.125013 s_1_7  > -997.068808
t_1_6 - t_2_4 - 1001.987784 s_2_4  + 1.987784 s_2_7  > -996.048756
t_2_6 - t_1_4 - 1002.125013 s_1_4  + 2.125013 s_1_7  > -997.068808
t_2_6 - t_2_4 - 1001.987784 s_2_4  + 1.987784 s_2_7  > -996.048756
t_1_4 - t_1_7 - 1000.000000 s_1_7  > -973.901247
t_1_4 - t_2_7 - 1000.000000 s_2_7  > -988.437778
t_2_4 - t_1_7 - 1000.000000 s_1_7  > -973.901247
t_2_4 - t_2_7 - 1000.000000 s_2_7  > -988.437778
s_1_4 + s_1_8 + 1000 r_1_4_8 >= 2
- s_1_4 - s_1_8 - 1000 r_1_4_8 >= -1001
t_1_4 - t_1_8 - 1000.000000 u_1_4_8 - 0.000000 s_1_8  + 2000.000000 r_1_4_8 > -974.373656
s_2_4 + s_2_8 + 1000 r_2_4_8 >= 2
- s_2_4 - s_2_8 - 1000 r_2_4_8 >= -1001
t_2_4 - t_2_8 - 1000.000000 u_2_4_8 - 0.000000 s_2_8  + 2000.000000 r_2_4_8 > -988.673400
s_1_5 + s_1_1 + 1000 r_1_1_5 >= 2
- s_1_5 - s_1_1 - 1000 r_1_1_5 >= -1001
t_1_5 - t_1_1 + 1000.000000 u_1_1_5 - 4.250026 s_1_1  + 2.125013 s_1_8  + 2.125013 s_1_7  + 2000.000000 r_1_1_5 > 18.551758
s_2_5 + s_2_1 + 1000 r_2_1_5 >= 2
- s_2_5 - s_2_1 - 1000 r_2_1_5 >= -1001
t_2_5 - t_2_1 + 1000.000000 u_2_1_5 - 3.975568 s_2_1  + 1.987784 s_2_8  + 1.987784 s_2_7  + 2000.000000 r_2_1_5 > 15.282027
s_1_5 + s_1_2 + 1000 r_1_2_5 >= 2
- s_1_5 - s_1_2 - 1000 r_1_2_5 >= -1001
t_1_5 - t_1_2 + 1000.000000 u_1_2_5 - 2.125013 s_1_2  + 2.125013 s_1_7  + 2000.000000 r_1_2_5 > 18.464311
s_2_5 + s_2_2 + 1000 r_2_2_5 >= 2
- s_2_5 - s_2_2 - 1000 r_2_2_5 >= -1001
t_2_5 - t_2_2 + 1000.000000 u_2_2_5 - 1.987784 s_2_2  + 1.987784 s_2_7  + 2000.000000 r_2_2_5 > 14.211785
s_1_5 + s_1_3 + 1000 r_1_3_5 >= 2
- s_1_5 - s_1_3 - 1000 r_1_3_5 >= -1001
t_1_5 - t_1_3 + 1000.000000 u_1_3_5 - 4.250026 s_1_3  + 2.125013 s_1_8  + 2.125013 s_1_7  + 2000.000000 r_1_3_5 > 1.901433
s_2_5 + s_2_3 + 1000 r_2_3_5 >= 2
- s_2_5 - s_2_3 - 1000 r_2_3_5 >= -1001
t_2_5 - t_2_3 + 1000.000000 u_2_3_5 - 3.975568 s_2_3  + 1.987784 s_2_8  + 1.987784 s_2_7  + 2000.000000 r_2_3_5 > 2.510417
s_1_5 + s_1_4 + 1000 r_1_4_5 >= 2
- s_1_5 - s_1_4 - 1000 r_1_4_5 >= -1001
t_1_5 - t_1_4 + 1000.000000 u_1_4_5 - 2.125013 s_1_4  + 2.125013 s_1_7  + 2000.000000 r_1_4_5 > 2.931192
s_2_5 + s_2_4 + 1000 r_2_4_5 >= 2
- s_2_5 - s_2_4 - 1000 r_2_4_5 >= -1001
t_2_5 - t_2_4 + 1000.000000 u_2_4_5 - 1.987784 s_2_4  + 1.987784 s_2_7  + 2000.000000 r_2_4_5 > 3.951244
t_1_6 - t_1_5 - 1002.125013 s_1_5  + 2.125013 s_1_8  > -991.159800
t_1_6 - t_2_5 - 1001.987784 s_2_5  + 1.987784 s_2_8  > -993.314938
t_2_6 - t_1_5 - 1002.125013 s_1_5  + 2.125013 s_1_8  > -991.159800
t_2_6 - t_2_5 - 1001.987784 s_2_5  + 1.987784 s_2_8  > -993.314938
s_1_5 + s_1_7 + 1000 r_1_5_7 >= 2
- s_1_5 - s_1_7 - 1000 r_1_5_7 >= -1001
t_1_5 - t_1_7 - 1000.000000 u_1_5_7 - 0.000000 s_1_7  + 2000.000000 r_1_5_7 > -973.901247
s_2_5 + s_2_7 + 1000 r_2_5_7 >= 2
- s_2_5 - s_2_7 - 1000 r_2_5_7 >= -1001
t_2_5 - t_2_7 - 1000.000000 u_2_5_7 - 0.000000 s_2_7  + 2000.000000 r_2_5_7 > -988.437778
t_1_5 - t_1_8 - 1000.000000 s_1_8  > -974.373656
t_1_5 - t_2_8 - 1000.000000 s_2_8  > -988.673400
t_2_5 - t_1_8 - 1000.000000 s_1_8  > -974.373656
t_2_5 - t_2_8 - 1000.000000 s_2_8  > -988.673400
t_1_6 - t_1_7 - 1000.000000 s_1_7  > -973.901247
t_1_6 - t_2_7 - 1000.000000 s_2_7  > -988.437778
t_2_6 - t_1_7 - 1000.000000 s_1_7  > -973.901247
t_2_6 - t_2_7 - 1000.000000 s_2_7  > -988.437778
s_1_7 + s_1_5 + 1000 r_1_5_7 >= 2
- s_1_7 - s_1_5 - 1000 r_1_5_7 >= -1001
t_1_7 - t_1_5 + 1000.000000 u_1_5_7 - 2.125013 s_1_5  + 2.125013 s_1_8  + 2000.000000 r_1_5_7 > 8.840200
s_2_7 + s_2_5 + 1000 r_2_5_7 >= 2
- s_2_7 - s_2_5 - 1000 r_2_5_7 >= -1001
t_2_7 - t_2_5 + 1000.000000 u_2_5_7 - 1.987784 s_2_5  + 1.987784 s_2_8  + 2000.000000 r_2_5_7 > 6.685062
s_1_7 + s_1_8 + 1000 r_1_7_8 >= 2
- s_1_7 - s_1_8 - 1000 r_1_7_8 >= -1001
t_1_7 - t_1_8 - 1000.000000 u_1_7_8 - 0.000000 s_1_8  + 2000.000000 r_1_7_8 > -974.373656
s_2_7 + s_2_8 + 1000 r_2_7_8 >= 2
- s_2_7 - s_2_8 - 1000 r_2_7_8 >= -1001
t_2_7 - t_2_8 - 1000.000000 u_2_7_8 - 0.000000 s_2_8  + 2000.000000 r_2_7_8 > -988.673400
s_1_8 + s_1_2 + 1000 r_1_2_8 >= 2
- s_1_8 - s_1_2 - 1000 r_1_2_8 >= -1001
t_1_8 - t_1_2 + 1000.000000 u_1_2_8 - 2.125013 s_1_2  + 2.125013 s_1_7  + 2000.000000 r_1_2_8 > 18.464311
s_2_8 + s_2_2 + 1000 r_2_2_8 >= 2
- s_2_8 - s_2_2 - 1000 r_2_2_8 >= -1001
t_2_8 - t_2_2 + 1000.000000 u_2_2_8 - 1.987784 s_2_2  + 1.987784 s_2_7  + 2000.000000 r_2_2_8 > 14.211785
s_1_8 + s_1_4 + 1000 r_1_4_8 >= 2
- s_1_8 - s_1_4 - 1000 r_1_4_8 >= -1001
t_1_8 - t_1_4 + 1000.000000 u_1_4_8 - 2.125013 s_1_4  + 2.125013 s_1_7  + 2000.000000 r_1_4_8 > 2.931192
s_2_8 + s_2_4 + 1000 r_2_4_8 >= 2
- s_2_8 - s_2_4 - 1000 r_2_4_8 >= -1001
t_2_8 - t_2_4 + 1000.000000 u_2_4_8 - 1.987784 s_2_4  + 1.987784 s_2_7  + 2000.000000 r_2_4_8 > 3.951244
s_1_8 + s_1_7 + 1000 r_1_7_8 >= 2
- s_1_8 - s_1_7 - 1000 r_1_7_8 >= -1001
t_1_8 - t_1_7 + 1000.000000 u_1_7_8 - 0.000000 s_1_7  + 2000.000000 r_1_7_8 > 26.098753
s_2_8 + s_2_7 + 1000 r_2_7_8 >= 2
- s_2_8 - s_2_7 - 1000 r_2_7_8 >= -1001
t_2_8 - t_2_7 + 1000.000000 u_2_7_8 - 0.000000 s_2_7  + 2000.000000 r_2_7_8 > 11.562222
Binary
s_1_1
s_2_1
s_1_2
s_2_2
s_1_3
s_2_3
s_1_4
s_2_4
s_1_5
s_2_5
s_1_6
s_2_6
s_1_7
s_2_7
s_1_8
s_2_8
u_1_1_2
r_1_1_2
u_2_1_2
r_2_1_2
u_1_1_3
r_1_1_3
u_2_1_3
r_2_1_3
u_1_1_4
r_1_1_4
u_2_1_4
r_2_1_4
u_1_1_5
r_1_1_5
u_2_1_5
r_2_1_5
u_1_2_3
r_1_2_3
u_2_2_3
r_2_2_3
u_1_2_4
r_1_2_4
u_2_2_4
r_2_2_4
u_1_2_5
r_1_2_5
u_2_2_5
r_2_2_5
u_1_2_8
r_1_2_8
u_2_2_8
r_2_2_8
u_1_3_4
r_1_3_4
u_2_3_4
r_2_3_4
u_1_3_5
r_1_3_5
u_2_3_5
r_2_3_5
u_1_4_5
r_1_4_5
u_2_4_5
r_2_4_5
u_1_4_8
r_1_4_8
u_2_4_8
r_2_4_8
u_1_5_7
r_1_5_7
u_2_5_7
r_2_5_7
u_1_7_8
r_1_7_8
u_2_7_8
r_2_7_8

End
